p edges 20 61
e 1 2
e 1 5
e 1 6
e 1 10
e 1 14
e 1 18
e 2 3
e 2 6
e 2 7
e 2 11
e 2 15
e 2 19
e 3 4
e 3 7
e 3 8
e 3 12
e 3 16
e 3 20
e 4 8
e 5 6
e 5 9
e 5 10
e 5 14
e 5 18
e 6 7
e 6 10
e 6 11
e 6 15
e 6 19
e 7 8
e 7 11
e 7 12
e 7 16
e 7 20
e 8 12
e 9 10
e 9 13
e 9 14
e 9 18
e 10 11
e 10 14
e 10 15
e 10 19
e 11 12
e 11 15
e 11 16
e 11 20
e 12 16
e 13 14
e 13 17
e 13 18
e 14 15
e 14 18
e 14 19
e 15 16
e 15 19
e 15 20
e 16 20
e 17 18
e 18 19
e 19 20